(declare-const X String)
; /filename\s*=\s*[^\r\n]*?\x2ettf[\x22\x27\x3b\s\r\n]/i
(assert (not (str.in_re X (re.++ (str.to_re "/filename") (re.* (re.union (str.to_re " ") (str.to_re "\u{9}") (str.to_re "\u{a}") (str.to_re "\u{c}") (str.to_re "\u{d}"))) (str.to_re "=") (re.* (re.union (str.to_re " ") (str.to_re "\u{9}") (str.to_re "\u{a}") (str.to_re "\u{c}") (str.to_re "\u{d}"))) (re.* (re.union (str.to_re "\u{d}") (str.to_re "\u{a}"))) (str.to_re ".ttf") (re.union (str.to_re "\u{22}") (str.to_re "'") (str.to_re ";") (str.to_re "\u{d}") (str.to_re "\u{a}") (str.to_re " ") (str.to_re "\u{9}") (str.to_re "\u{a}") (str.to_re "\u{c}") (str.to_re "\u{d}")) (str.to_re "/i\u{a}")))))
; /setAttributeNS\s*\x28[^,]*,[^,]*requiredFeatures[^,]*,\s*[\x22\x27][\s\r\n]+[\x22\x27]/i
(assert (not (str.in_re X (re.++ (str.to_re "/setAttributeNS") (re.* (re.union (str.to_re " ") (str.to_re "\u{9}") (str.to_re "\u{a}") (str.to_re "\u{c}") (str.to_re "\u{d}"))) (str.to_re "(") (re.* (re.comp (str.to_re ","))) (str.to_re ",") (re.* (re.comp (str.to_re ","))) (str.to_re "requiredFeatures") (re.* (re.comp (str.to_re ","))) (str.to_re ",") (re.* (re.union (str.to_re " ") (str.to_re "\u{9}") (str.to_re "\u{a}") (str.to_re "\u{c}") (str.to_re "\u{d}"))) (re.union (str.to_re "\u{22}") (str.to_re "'")) (re.+ (re.union (str.to_re "\u{d}") (str.to_re "\u{a}") (str.to_re " ") (str.to_re "\u{9}") (str.to_re "\u{a}") (str.to_re "\u{c}") (str.to_re "\u{d}"))) (re.union (str.to_re "\u{22}") (str.to_re "'")) (str.to_re "/i\u{a}")))))
(check-sat)

(exit)
